Route 1: 164 183 181 91 73 34 36 33 62 74 4 100 134 177 35 117 137 162 94 104 63 3 165 135 170 180 133 142 130 198 176 174 82 113 98 83 109 12 110 106 149 54 2 190 76 108 188 28 97 52 1 155 140 175 72 39 115

Route 2: 61 60 151 45 8 79 26 161 21 95 194 128 6 40 27 193 32 146 178 200 68 13 44 38 57 11 66 14 70 17 16 89 58 84 22 7 5 114 24 136 64 10 93 20 30 87 25 50 126 46 85 169 154 86 53 163

Route 3: 18 23 41 131 179 199 47 56 116 77 65 152 139 118 19 43 48 71 31 15 103 88 132 195 147 59 51 172 81 120 29 160 37 49 9 129 125 185 42 101 127 112 111 80

Route 4: 168 67 119 143 197 167 191 184 92 78 150 90 166 141 123 105 157 124 138 107 122 102 145 159 75 69 186 96 55 156 173 121 189 182 153 148 171 99

Route 5: 192 158 144 196 187

Vehicles: 5

Distance: 4542.94

